\ENCODING=ISO-8859-1
\Problem name: ilog.cplex

Minimize
 obj1: - x_0_1 - x_0_2 - x_0_3 - x_0_4 - x_0_5 - x_0_6 - x_0_8 - x_0_9 - x_0_10
       + x_0_13 - x_0_16 + x_0_17 - x_16_17 - x_16_18 + x_16_19 - x_16_20
       + x_0_21 - x_16_21 - x_0_22 + x_0_24 + x_0_25 + x_16_31 - x_1_2 - x_1_3
       - x_1_4 - x_1_5 - x_1_6 - x_1_7 - x_1_8 - x_1_9 - x_1_10 + x_1_12
       + x_1_14 - x_1_17 - x_1_18 - x_17_18 - x_17_19 - x_17_20 - x_1_22
       + x_1_23 - x_17_26 - x_17_28 + x_1_31 - x_2_3 - x_2_4 - x_2_6 - x_2_7
       - x_2_8 - x_2_9 - x_2_10 + x_2_14 + x_2_16 + x_2_19 - x_18_19 + x_18_20
       + x_2_21 - x_18_21 + x_2_22 + x_18_25 + x_18_26 - x_2_27 - x_18_27
       - x_2_30 + x_3_4 - x_3_5 - x_3_6 - x_3_7 - x_3_8 - x_3_9 - x_3_10
       + x_3_15 + x_3_18 - x_3_20 - x_19_20 - x_19_21 - x_19_22 + x_19_24
       - x_3_25 + x_3_28 + x_3_29 + x_19_29 + x_3_30 - x_19_30 + x_4_5 - x_4_6
       - x_4_7 - x_4_8 - x_4_9 - x_4_10 - x_4_18 + x_4_20 - x_20_21 - x_20_22
       - x_20_23 - x_20_25 + x_4_26 + x_4_27 - x_4_29 - x_5_6 - x_5_7 - x_5_8
       - x_5_9 - x_5_11 - x_5_12 + x_5_14 + x_5_19 - x_5_21 - x_21_22 + x_21_23
       + x_5_28 + x_21_28 - x_5_31 + x_21_31 + x_6_7 - x_6_8 - x_6_9 - x_6_10
       - x_6_12 + x_22_23 + x_22_24 + x_6_25 + x_22_25 - x_22_26 - x_22_27
       - x_22_28 + x_6_29 - x_22_29 - x_22_30 - x_22_31 - x_7_8 - x_7_9
       - x_7_10 - x_7_11 - x_7_20 + x_7_22 + x_7_24 - x_23_24 - x_23_25
       - x_23_26 - x_23_27 - x_7_29 - x_23_29 - x_7_30 - x_23_30 - x_8_9
       - x_8_10 + x_8_15 + x_8_16 - x_8_17 + x_8_23 + x_8_24 - x_8_25 - x_24_25
       - x_24_26 + x_24_27 - x_24_28 - x_24_29 + x_24_30 - x_24_31 - x_9_10
       - x_9_18 + x_9_24 - x_9_25 + x_9_26 - x_25_26 - x_25_27 - x_25_28
       - x_9_29 - x_25_29 - x_9_31 - x_25_31 - x_10_12 - x_10_13 + x_10_17
       + x_10_18 + x_10_21 + x_10_24 - x_26_27 - x_26_28 - x_26_29 - x_26_30
       + x_26_31 - x_11_12 - x_11_13 - x_11_14 - x_11_15 + x_11_17 - x_11_18
       - x_11_19 - x_11_20 - x_11_21 + x_11_22 - x_11_23 - x_11_27 - x_11_28
       - x_27_28 + x_27_29 - x_27_30 - x_11_31 - x_12_13 + x_12_14 - x_12_15
       - x_12_16 - x_12_17 - x_12_18 - x_12_19 - x_12_20 - x_12_21 - x_12_22
       - x_12_25 + x_12_26 + x_12_29 - x_28_29 + x_28_30 - x_12_31 - x_28_31
       - x_13_14 - x_13_15 - x_13_17 - x_13_18 - x_13_19 - x_13_21 + x_13_23
       - x_13_27 - x_13_29 - x_29_30 - x_29_31 - x_14_15 - x_14_16 - x_14_17
       - x_14_18 - x_14_19 + x_14_21 + x_14_25 - x_14_26 + x_14_29 + x_14_30
       - x_30_31 - x_15_16 - x_15_17 - x_15_19 + x_15_20 - x_15_21 - x_15_30
       + 173
Subject To
 c1:   x_0_4 + x_0_5 - x_4_5 <= 1
 c2:   x_0_10 - x_0_13 + x_10_13 <= 1
 c3:   x_11_12 + x_11_14 - x_12_14 <= 1
 c4:   - x_8_15 + x_8_17 + x_15_17 <= 1
 c5:   x_16_17 - x_8_16 + x_8_17 <= 1
 c6:   x_0_16 - x_0_17 + x_16_17 <= 1
 c7:   - x_16_19 + x_12_16 + x_12_19 <= 1
 c8:   x_4_7 - x_4_20 + x_7_20 <= 1
 c9:   x_0_16 - x_0_21 + x_16_21 <= 1
 c10:  x_23_25 - x_8_23 + x_8_25 <= 1
 c11:  x_0_3 - x_0_24 + x_3_25 + x_24_25 <= 2
 c12:  - x_8_24 + x_8_25 + x_24_25 <= 1
 c13:  x_0_3 - x_0_25 + x_3_25 <= 1
 c14:  - x_4_26 + x_4_29 + x_26_29 <= 1
 c15:  x_17_26 + x_12_17 - x_12_26 <= 1
 c16:  x_18_27 + x_4_18 - x_4_27 <= 1
 c17:  x_23_24 + x_23_27 - x_24_27 <= 1
 c18:  x_12_13 - x_12_29 + x_13_29 <= 1
 c19:  x_23_24 + x_23_30 - x_24_30 <= 1
 c20:  x_26_28 + x_26_30 - x_28_30 <= 1
 c21:  - x_16_31 + x_12_16 + x_12_31 <= 1
 c22:  x_1_5 - x_1_12 + x_5_12 <= 1
 c23:  - x_1_14 + x_1_17 + x_14_17 <= 1
 c24:  x_5_11 - x_5_14 + x_11_14 <= 1
 c25:  x_19_21 - x_5_19 + x_5_21 <= 1
 c26:  x_1_2 - x_1_23 + x_2_27 + x_23_27 <= 2
 c27:  - x_21_23 + x_11_21 + x_11_23 <= 1
 c28:  x_23_27 - x_13_23 + x_13_27 <= 1
 c29:  x_24_25 - x_9_24 + x_9_25 <= 1
 c30:  x_9_25 - x_9_26 + x_25_26 <= 1
 c31:  x_5_11 - x_5_28 + x_11_28 <= 1
 c32:  - x_21_28 + x_11_21 + x_11_28 <= 1
 c33:  x_1_5 - x_1_31 + x_5_31 <= 1
 c34:  - x_21_31 + x_11_21 + x_11_31 <= 1
 c35:  x_1_6 + x_1_7 - x_6_7 <= 1
 c36:  x_0_2 + x_0_16 - x_2_14 + x_14_16 <= 2
 c37:  x_0_2 + x_0_16 - x_2_16 <= 1
 c38:  x_8_10 + x_8_17 - x_10_17 <= 1
 c39:  x_1_10 + x_1_18 - x_10_18 <= 1
 c40:  - x_2_19 + x_2_30 + x_19_30 <= 1
 c41:  x_16_18 + x_16_20 - x_18_20 <= 1
 c42:  x_0_2 + x_0_16 + x_16_21 - x_2_21 <= 2
 c43:  x_10_12 - x_10_21 + x_12_21 <= 1
 c44:  x_16_21 + x_14_16 - x_14_21 <= 1
 c45:  x_0_2 + x_0_22 - x_2_22 <= 1
 c46:  x_20_22 + x_20_23 - x_22_23 <= 1
 c47:  - x_22_24 + x_22_26 + x_24_26 <= 1
 c48:  x_8_10 + x_8_25 + x_24_25 - x_10_24 <= 2
 c49:  x_3_6 + x_3_25 - x_6_25 <= 1
 c50:  x_20_22 + x_20_25 - x_22_25 <= 1
 c51:  x_25_26 - x_14_25 + x_14_26 <= 1
 c52:  x_17_18 + x_17_26 - x_18_26 <= 1
 c53:  x_4_6 + x_4_29 - x_6_29 <= 1
 c54:  x_26_29 + x_14_26 - x_14_29 <= 1
 c55:  x_19_30 + x_14_19 - x_14_30 <= 1
 c56:  x_24_26 + x_24_31 - x_26_31 <= 1
 c57:  x_0_3 + x_0_4 - x_3_4 <= 1
 c58:  x_0_3 + x_0_16 - x_3_15 + x_15_16 <= 2
 c59:  x_11_12 - x_11_17 + x_12_17 <= 1
 c60:  x_1_3 + x_1_18 - x_3_18 <= 1
 c61:  x_16_20 + x_15_16 - x_15_20 <= 1
 c62:  x_20_22 + x_7_20 - x_7_22 <= 1
 c63:  x_11_12 - x_11_22 + x_12_22 <= 1
 c64:  x_17_19 + x_17_26 - x_19_24 + x_24_26 <= 2
 c65:  - x_7_24 + x_7_29 + x_24_29 <= 1
 c66:  x_3_25 - x_3_28 + x_25_28 <= 1
 c67:  x_3_7 - x_3_29 + x_7_29 <= 1
 c68:  - x_19_29 + x_13_19 + x_13_29 <= 1
 c69:  x_25_27 + x_25_29 - x_27_29 <= 1
 c70:  x_2_3 + x_2_30 - x_3_30 <= 1
 c71:  x_0_1 - x_0_2 + x_1_2 <= 1
 c72:  x_0_1 - x_0_4 + x_1_4 <= 1
 c73:  x_0_1 - x_0_10 + x_1_10 <= 1
 c74:  x_0_1 - x_0_13 + x_1_17 + x_13_17 <= 2
 c75:  x_1_8 + x_1_17 - x_8_15 + x_15_17 <= 2
 c76:  x_0_1 - x_0_16 + x_16_17 + x_1_17 <= 2
 c77:  x_16_17 + x_1_8 + x_1_17 - x_8_16 <= 2
 c78:  x_0_1 - x_0_17 + x_1_17 <= 1
 c79:  x_1_8 + x_1_17 - x_8_17 <= 1
 c80:  - x_16_19 + x_14_16 + x_14_19 <= 1
 c81:  x_16_17 - x_16_20 + x_17_20 <= 1
 c82:  x_0_5 - x_0_21 + x_5_21 <= 1
 c83:  - x_16_21 + x_15_16 + x_15_21 <= 1
 c84:  x_3_8 + x_3_20 + x_20_23 - x_8_23 <= 2
 c85:  x_0_5 - x_0_24 + x_5_31 + x_24_31 <= 2
 c86:  x_5_8 + x_5_31 - x_8_24 + x_24_31 <= 2
 c87:  x_0_3 - x_0_25 + x_3_20 + x_20_25 <= 2
 c88:  x_3_8 + x_3_20 + x_20_25 - x_8_25 <= 2
 c89:  x_24_25 - x_24_26 + x_25_26 <= 1
 c90:  - x_24_27 + x_24_28 + x_27_28 <= 1
 c91:  x_24_29 - x_24_30 + x_29_30 <= 1
 c92:  - x_16_31 + x_11_14 + x_11_31 + x_14_16 <= 2
 c93:  x_0_1 + x_0_5 - x_1_5 <= 1
 c94:  x_0_1 + x_0_6 - x_1_6 <= 1
 c95:  - x_1_12 + x_1_17 + x_12_17 <= 1
 c96:  x_1_17 - x_1_18 + x_17_18 <= 1
 c97:  x_1_17 + x_17_20 - x_1_23 + x_20_23 <= 2
 c98:  x_24_29 - x_9_24 + x_9_29 <= 1
 c99:  - x_9_25 + x_9_29 + x_25_29 <= 1
 c100: - x_9_26 + x_9_29 + x_26_29 <= 1
 c101: x_25_26 - x_25_27 + x_26_27 <= 1
 c102: x_1_22 - x_1_31 + x_22_31 <= 1
 c103: x_6_10 + x_6_12 - x_10_12 <= 1
 c104: x_1_2 + x_1_14 - x_2_14 <= 1
 c105: x_16_17 + x_1_2 + x_1_17 - x_2_16 <= 2
 c106: x_1_10 + x_1_17 - x_10_17 <= 1
 c107: x_9_10 + x_9_18 - x_10_18 <= 1
 c108: x_1_2 + x_1_17 + x_17_19 - x_2_19 <= 2
 c109: x_17_18 + x_17_20 - x_18_20 <= 1
 c110: x_1_2 + x_1_22 - x_2_21 + x_21_22 <= 2
 c111: x_10_13 - x_10_21 + x_13_21 <= 1
 c112: x_1_2 + x_1_22 - x_2_22 <= 1
 c113: x_24_29 + x_9_10 + x_9_29 - x_10_24 <= 2
 c114: - x_18_25 + x_12_18 + x_12_25 <= 1
 c115: - x_18_27 + x_11_18 + x_11_27 <= 1
 c116: x_25_26 + x_25_28 - x_26_28 <= 1
 c117: x_2_7 - x_2_30 + x_7_30 <= 1
 c118: x_25_26 + x_25_31 - x_26_31 <= 1
 c119: x_1_3 + x_1_4 - x_3_4 <= 1
 c120: - x_11_12 + x_11_18 + x_12_18 <= 1
 c121: x_1_3 + x_1_17 - x_3_15 + x_15_17 <= 2
 c122: x_17_18 - x_11_17 + x_11_18 <= 1
 c123: x_3_9 - x_3_18 + x_9_18 <= 1
 c124: x_18_19 + x_18_21 - x_19_21 <= 1
 c125: x_18_21 + x_11_18 - x_11_21 <= 1
 c126: x_19_22 + x_11_19 - x_11_22 <= 1
 c127: x_17_19 + x_17_28 - x_19_24 + x_24_28 <= 2
 c128: x_3_20 - x_3_25 + x_20_25 <= 1
 c129: x_0_3 + x_0_22 - x_3_28 + x_22_28 <= 2
 c130: x_3_9 - x_3_29 + x_9_29 <= 1
 c131: x_19_22 - x_19_29 + x_22_29 <= 1
 c132: x_26_27 + x_26_29 - x_27_29 <= 1
 c133: x_3_7 - x_3_30 + x_7_30 <= 1
 c134: - x_19_30 + x_15_19 + x_15_30 <= 1
 c135: - x_4_5 + x_4_6 + x_5_6 <= 1
 c136: x_1_4 + x_1_7 - x_4_7 <= 1
 c137: - x_12_14 + x_12_17 + x_14_17 <= 1
 c138: x_16_17 - x_12_16 + x_12_17 <= 1
 c139: x_17_18 + x_17_20 + x_4_18 - x_4_20 <= 2
 c140: x_19_20 + x_19_22 - x_20_22 <= 1
 c141: x_1_4 + x_1_22 - x_4_26 + x_22_26 <= 2
 c142: x_22_26 + x_12_22 - x_12_26 <= 1
 c143: x_2_4 + x_2_27 - x_4_27 <= 1
 c144: x_4_9 - x_4_29 + x_9_29 <= 1
 c145: x_22_29 + x_12_22 - x_12_29 <= 1
 c146: x_27_28 + x_27_30 - x_28_30 <= 1
 c147: x_5_7 - x_5_11 + x_7_11 <= 1
 c148: x_0_1 + x_0_5 + x_1_14 - x_5_14 <= 2
 c149: x_5_12 - x_5_19 + x_12_19 <= 1
 c150: x_20_21 + x_20_23 - x_21_23 <= 1
 c151: x_11_13 + x_11_23 - x_13_23 <= 1
 c152: - x_5_28 + x_5_31 + x_28_31 <= 1
 c153: x_21_22 - x_21_28 + x_22_28 <= 1
 c154: x_17_28 + x_28_29 + x_13_17 - x_13_29 <= 2
 c155: - x_21_31 + x_12_21 + x_12_31 <= 1
 c156: x_2_6 + x_2_7 - x_6_7 <= 1
 c157: x_18_21 + x_14_18 - x_14_21 <= 1
 c158: - x_22_23 + x_22_26 + x_23_26 <= 1
 c159: - x_22_24 + x_22_28 + x_24_28 <= 1
 c160: x_6_12 - x_6_25 + x_12_25 <= 1
 c161: - x_22_25 + x_12_22 + x_12_25 <= 1
 c162: x_12_17 + x_12_25 + x_14_17 - x_14_25 <= 2
 c163: x_19_22 + x_22_26 + x_14_19 - x_14_26 <= 2
 c164: x_6_9 - x_6_29 + x_9_29 <= 1
 c165: x_17_28 + x_28_29 + x_14_17 - x_14_29 <= 2
 c166: x_14_15 - x_14_30 + x_15_30 <= 1
 c167: x_17_20 + x_15_17 - x_15_20 <= 1
 c168: x_1_7 + x_1_22 - x_7_22 <= 1
 c169: x_20_25 + x_7_20 - x_7_24 + x_24_25 <= 2
 c170: - x_23_24 + x_23_25 + x_24_25 <= 1
 c171: - x_23_27 + x_11_23 + x_11_27 <= 1
 c172: x_7_9 - x_7_29 + x_9_29 <= 1
 c173: x_0_2 - x_0_13 + x_2_19 + x_13_19 <= 2
 c174: x_12_13 - x_12_14 + x_13_14 <= 1
 c175: x_2_8 + x_2_19 - x_8_15 + x_15_19 <= 2
 c176: x_0_2 - x_0_16 + x_16_19 + x_2_19 <= 2
 c177: x_16_19 + x_2_8 + x_2_19 - x_8_16 <= 2
 c178: x_0_2 - x_0_17 + x_17_19 + x_2_19 <= 2
 c179: x_17_19 + x_2_8 + x_2_19 - x_8_17 <= 2
 c180: x_12_13 - x_12_17 + x_13_17 <= 1
 c181: x_18_20 + x_4_18 - x_4_20 <= 1
 c182: x_0_10 - x_0_21 + x_10_21 <= 1
 c183: x_0_2 - x_0_22 + x_2_19 + x_19_22 <= 2
 c184: x_17_20 + x_17_26 - x_20_23 + x_23_26 <= 2
 c185: x_2_8 + x_2_30 + x_23_30 - x_8_23 <= 2
 c186: x_0_2 - x_0_24 + x_2_30 + x_24_30 <= 2
 c187: x_2_8 + x_2_30 - x_8_24 + x_24_30 <= 2
 c188: x_0_2 - x_0_25 + x_2_27 + x_25_27 <= 2
 c189: x_16_20 + x_16_31 - x_20_25 + x_25_31 <= 2
 c190: x_2_8 + x_2_27 - x_8_25 + x_25_27 <= 2
 c191: x_25_29 - x_12_25 + x_12_29 <= 1
 c192: - x_4_26 + x_4_27 + x_26_27 <= 1
 c193: x_23_24 + x_23_26 - x_24_26 <= 1
 c194: x_26_29 - x_12_26 + x_12_29 <= 1
 c195: x_24_25 - x_24_27 + x_25_27 <= 1
 c196: x_24_25 - x_24_28 + x_25_28 <= 1
 c197: x_4_27 - x_4_29 + x_27_29 <= 1
 c198: x_1_6 - x_1_12 + x_6_12 <= 1
 c199: x_5_6 - x_5_12 + x_6_12 <= 1
 c200: x_1_2 - x_1_14 + x_2_19 + x_14_19 <= 2
 c201: x_3_5 + x_3_30 - x_5_14 + x_14_30 <= 2
 c202: x_1_2 - x_1_17 + x_17_19 + x_2_19 <= 2
 c203: x_1_4 - x_1_18 + x_4_18 <= 1
 c204: x_16_17 + x_16_18 - x_17_18 <= 1
 c205: x_4_9 + x_4_18 - x_9_18 <= 1
 c206: x_5_11 - x_5_19 + x_11_19 <= 1
 c207: x_5_11 - x_5_21 + x_11_21 <= 1
 c208: x_1_2 - x_1_22 + x_2_19 + x_19_22 <= 2
 c209: x_20_21 + x_20_22 - x_21_22 <= 1
 c210: x_1_2 - x_1_23 + x_2_30 + x_23_30 <= 2
 c211: - x_21_23 + x_23_29 + x_12_21 + x_12_29 <= 2
 c212: x_23_29 - x_13_23 + x_13_29 <= 1
 c213: x_24_31 - x_9_24 + x_9_31 <= 1
 c214: - x_9_25 + x_9_31 + x_25_31 <= 1
 c215: x_2_9 + x_2_27 - x_9_26 + x_26_27 <= 2
 c216: x_23_25 + x_23_26 - x_25_26 <= 1
 c217: x_3_5 + x_3_30 - x_5_28 + x_28_30 <= 2
 c218: - x_21_28 + x_21_31 + x_28_31 <= 1
 c219: - x_9_29 + x_9_31 + x_29_31 <= 1
 c220: x_1_9 - x_1_31 + x_9_31 <= 1
 c221: x_5_9 - x_5_31 + x_9_31 <= 1
 c222: x_10_12 - x_10_13 + x_12_13 <= 1
 c223: - x_2_14 + x_2_19 + x_14_19 <= 1
 c224: x_16_19 - x_2_16 + x_2_19 <= 1
 c225: x_17_19 + x_2_10 + x_2_19 - x_10_17 <= 2
 c226: x_4_10 + x_4_18 - x_10_18 <= 1
 c227: x_2_19 - x_2_21 + x_19_21 <= 1
 c228: x_2_19 - x_2_22 + x_19_22 <= 1
 c229: - x_22_23 + x_22_29 + x_23_29 <= 1
 c230: - x_22_24 + x_22_29 + x_24_29 <= 1
 c231: x_24_31 + x_9_10 + x_9_31 - x_10_24 <= 2
 c232: - x_18_25 + x_18_27 + x_25_27 <= 1
 c233: x_2_6 + x_2_27 - x_6_25 + x_25_27 <= 2
 c234: - x_22_25 + x_22_27 + x_25_27 <= 1
 c235: x_25_29 - x_14_25 + x_14_29 <= 1
 c236: - x_18_26 + x_14_18 + x_14_26 <= 1
 c237: - x_22_26 + x_22_27 + x_26_27 <= 1
 c238: x_6_12 - x_6_29 + x_12_29 <= 1
 c239: x_26_28 - x_26_31 + x_28_31 <= 1
 c240: - x_11_14 + x_11_18 + x_14_18 <= 1
 c241: - x_3_15 + x_3_20 + x_15_20 <= 1
 c242: x_17_19 - x_11_17 + x_11_19 <= 1
 c243: x_3_4 - x_3_18 + x_4_18 <= 1
 c244: x_3_7 + x_3_20 - x_7_20 <= 1
 c245: x_7_11 - x_7_22 + x_11_22 <= 1
 c246: x_19_29 + x_23_29 + x_11_19 - x_11_23 <= 2
 c247: - x_19_24 + x_19_29 + x_24_29 <= 1
 c248: - x_7_24 + x_7_30 + x_24_30 <= 1
 c249: x_2_3 + x_2_27 - x_3_25 + x_25_27 <= 2
 c250: x_23_25 - x_23_27 + x_25_27 <= 1
 c251: - x_3_28 + x_3_30 + x_28_30 <= 1
 c252: x_22_28 + x_11_22 - x_11_28 <= 1
 c253: - x_3_29 + x_3_30 + x_29_30 <= 1
 c254: - x_7_29 + x_7_30 + x_29_30 <= 1
 c255: x_0_5 - x_0_13 + x_5_11 + x_11_13 <= 2
 c256: x_1_8 + x_1_12 - x_8_15 + x_12_15 <= 2
 c257: x_0_1 - x_0_16 + x_1_12 + x_12_16 <= 2
 c258: x_1_8 + x_1_12 - x_8_16 + x_12_16 <= 2
 c259: x_0_1 - x_0_17 + x_1_12 + x_12_17 <= 2
 c260: x_1_8 + x_1_12 - x_8_17 + x_12_17 <= 2
 c261: - x_16_19 + x_15_16 + x_15_19 <= 1
 c262: - x_16_20 + x_12_16 + x_12_20 <= 1
 c263: x_0_8 + x_0_22 + x_22_23 - x_8_23 <= 2
 c264: - x_8_24 + x_8_25 + x_24_28 + x_25_28 <= 2
 c265: x_0_8 - x_0_25 + x_8_25 <= 1
 c266: - x_24_25 + x_24_28 + x_25_28 <= 1
 c267: x_24_26 - x_24_27 + x_26_27 <= 1
 c268: x_24_28 - x_24_29 + x_28_29 <= 1
 c269: x_24_26 - x_24_30 + x_26_30 <= 1
 c270: x_1_7 - x_1_14 + x_7_30 + x_14_30 <= 2
 c271: x_1_12 - x_1_17 + x_12_17 <= 1
 c272: x_1_12 - x_1_18 + x_12_18 <= 1
 c273: x_6_9 + x_6_12 - x_9_18 + x_12_18 <= 2
 c274: - x_17_20 + x_11_17 + x_11_20 <= 1
 c275: x_24_28 - x_9_24 + x_9_25 + x_25_28 <= 2
 c276: x_0_9 + x_0_22 + x_22_26 - x_9_26 <= 2
 c277: - x_25_27 + x_25_28 + x_11_27 + x_11_28 <= 2
 c278: - x_17_28 + x_11_17 + x_11_28 <= 1
 c279: x_4_9 + x_4_29 - x_9_29 <= 1
 c280: x_1_12 - x_1_31 + x_12_31 <= 1
 c281: x_9_25 - x_9_31 + x_25_31 <= 1
 c282: x_7_10 + x_7_11 - x_10_13 + x_11_13 <= 2
 c283: x_0_2 + x_0_22 - x_2_14 + x_19_22 + x_14_19 <= 3
 c284: x_1_2 + x_1_12 - x_2_16 + x_12_16 <= 2
 c285: x_10_12 - x_10_17 + x_12_17 <= 1
 c286: x_10_12 - x_10_18 + x_12_18 <= 1
 c287: x_0_2 + x_0_22 - x_2_19 + x_19_22 <= 2
 c288: - x_18_20 + x_11_18 + x_11_20 <= 1
 c289: x_24_31 + x_10_12 - x_10_24 + x_12_31 <= 2
 c290: x_16_18 + x_16_31 - x_18_25 + x_25_31 <= 2
 c291: - x_18_26 + x_18_27 + x_26_27 <= 1
 c292: x_0_2 + x_0_22 - x_2_30 + x_22_30 <= 2
 c293: x_11_13 - x_11_14 + x_13_14 <= 1
 c294: x_1_3 + x_1_12 - x_3_15 + x_12_15 <= 2
 c295: x_1_3 + x_1_12 - x_3_18 + x_12_18 <= 2
 c296: - x_19_24 + x_24_28 + x_11_19 + x_11_28 <= 2
 c297: x_3_8 - x_3_25 + x_8_25 <= 1
 c298: x_11_27 + x_11_28 - x_27_28 <= 1
 c299: x_3_4 - x_3_29 + x_4_29 <= 1
 c300: x_22_27 + x_22_29 - x_27_29 <= 1
 c301: x_0_3 + x_0_22 - x_3_30 + x_22_30 <= 2
 c302: - x_12_13 + x_12_17 + x_13_17 <= 1
 c303: x_1_4 + x_1_12 - x_4_18 + x_12_18 <= 2
 c304: x_17_19 + x_12_17 - x_12_19 <= 1
 c305: x_3_4 + x_3_20 - x_4_20 <= 1
 c306: x_16_21 + x_12_16 - x_12_21 <= 1
 c307: x_20_22 + x_12_20 - x_12_22 <= 1
 c308: - x_20_23 + x_11_20 + x_11_23 <= 1
 c309: x_25_31 - x_12_25 + x_12_31 <= 1
 c310: - x_12_29 + x_12_31 + x_29_31 <= 1
 c311: x_22_28 + x_22_30 - x_28_30 <= 1
 c312: x_5_7 - x_5_14 + x_7_30 + x_14_30 <= 2
 c313: x_23_29 + x_13_23 - x_13_29 <= 1
 c314: x_16_21 + x_16_31 - x_21_31 <= 1
 c315: x_16_17 - x_14_16 + x_14_17 <= 1
 c316: x_19_21 + x_14_19 - x_14_21 <= 1
 c317: x_6_8 - x_6_25 + x_8_25 <= 1
 c318: - x_22_25 + x_22_28 + x_25_28 <= 1
 c319: x_25_29 + x_29_30 - x_14_25 + x_14_30 <= 2
 c320: x_29_30 - x_14_29 + x_14_30 <= 1
 c321: x_7_11 - x_7_20 + x_11_20 <= 1
 c322: x_19_20 + x_15_19 - x_15_20 <= 1
 c323: x_22_29 - x_7_22 + x_7_29 <= 1
 c324: x_7_11 - x_7_24 + x_24_28 + x_11_28 <= 2
 c325: - x_23_24 + x_23_26 + x_24_26 <= 1
 c326: - x_23_25 + x_23_29 + x_25_29 <= 1
 c327: x_0_1 - x_0_13 + x_1_18 + x_13_18 <= 2
 c328: x_16_18 + x_1_8 + x_1_18 - x_8_15 + x_15_16 <= 3
 c329: x_0_1 - x_0_16 + x_16_18 + x_1_18 <= 2
 c330: x_16_18 + x_1_8 + x_1_18 - x_8_16 <= 2
 c331: x_0_1 - x_0_17 + x_1_18 + x_17_18 <= 2
 c332: x_1_8 + x_1_18 + x_17_18 - x_8_17 <= 2
 c333: x_0_1 - x_0_21 + x_1_18 + x_18_21 <= 2
 c334: x_0_1 - x_0_22 + x_1_18 + x_12_18 + x_12_22 <= 3
 c335: x_1_8 + x_1_18 + x_18_20 + x_20_23 - x_8_23 <= 3
 c336: x_0_1 - x_0_24 + x_1_18 + x_24_30 + x_14_18 + x_14_30 <= 4
 c337: x_1_8 + x_1_18 - x_8_24 + x_24_30 + x_14_18 + x_14_30 <= 4
 c338: x_0_1 - x_0_25 + x_1_18 + x_18_20 + x_20_25 <= 3
 c339: x_1_8 + x_1_18 + x_18_20 + x_20_25 - x_8_25 <= 3
 c340: x_20_25 + x_12_20 - x_12_25 <= 1
 c341: x_19_30 + x_26_30 + x_12_19 - x_12_26 <= 2
 c342: x_19_30 + x_12_19 - x_12_29 + x_29_30 <= 2
 c343: - x_16_31 + x_22_31 + x_12_16 + x_12_22 <= 2
 c344: x_22_31 + x_12_22 - x_12_31 <= 1
 c345: x_1_5 + x_1_18 - x_5_11 + x_11_18 <= 2
 c346: - x_1_12 + x_1_18 + x_12_18 <= 1
 c347: x_1_5 + x_1_18 - x_5_12 + x_12_18 <= 2
 c348: - x_1_14 + x_1_18 + x_14_18 <= 1
 c349: x_1_5 + x_1_18 - x_5_14 + x_14_18 <= 2
 c350: - x_1_17 + x_1_18 + x_17_18 <= 1
 c351: x_1_5 + x_1_18 + x_18_19 - x_5_19 <= 2
 c352: x_1_5 + x_1_18 + x_18_21 - x_5_21 <= 2
 c353: x_1_18 - x_1_22 + x_12_18 + x_12_22 <= 2
 c354: x_1_18 - x_1_23 + x_18_20 + x_20_23 <= 2
 c355: x_21_23 + x_13_21 - x_13_23 <= 1
 c356: x_24_30 + x_9_18 - x_9_24 + x_14_18 + x_14_30 <= 3
 c357: x_18_20 + x_20_25 + x_9_18 - x_9_25 <= 2
 c358: x_9_18 - x_9_26 + x_26_30 + x_14_18 + x_14_30 <= 3
 c359: x_1_5 + x_1_18 + x_18_27 - x_5_28 + x_27_28 <= 3
 c360: x_9_18 - x_9_29 + x_29_30 + x_14_18 + x_14_30 <= 3
 c361: x_19_30 + x_13_19 - x_13_29 + x_29_30 <= 2
 c362: x_1_18 - x_1_31 + x_22_31 + x_12_18 + x_12_22 <= 3
 c363: x_1_5 + x_1_18 - x_5_31 + x_22_31 + x_12_18 + x_12_22 <= 4
 c364: x_21_22 - x_21_31 + x_22_31 <= 1
 c365: x_22_31 + x_9_18 - x_9_31 + x_12_18 + x_12_22 <= 3
 c366: x_1_6 + x_1_18 - x_6_12 + x_12_18 <= 2
 c367: - x_10_12 + x_10_18 + x_12_18 <= 1
 c368: - x_10_13 + x_10_18 + x_13_18 <= 1
 c369: x_1_2 + x_1_18 - x_2_14 + x_14_18 <= 2
 c370: x_16_18 + x_1_2 + x_1_18 - x_2_16 <= 2
 c371: x_17_18 - x_10_17 + x_10_18 <= 1
 c372: x_1_2 + x_1_18 - x_2_19 + x_18_19 <= 2
 c373: x_1_2 + x_1_18 - x_2_21 + x_18_21 <= 2
 c374: x_18_21 + x_10_18 - x_10_21 <= 1
 c375: x_1_2 + x_1_18 - x_2_22 + x_12_18 + x_12_22 <= 3
 c376: - x_22_24 + x_22_25 + x_24_25 <= 1
 c377: x_24_30 + x_10_18 - x_10_24 + x_14_18 + x_14_30 <= 3
 c378: x_18_20 - x_18_25 + x_20_25 <= 1
 c379: x_1_6 + x_1_18 + x_18_20 + x_20_25 - x_6_25 <= 3
 c380: x_16_20 + x_20_25 + x_14_16 - x_14_25 <= 2
 c381: - x_18_26 + x_26_30 + x_14_18 + x_14_30 <= 2
 c382: x_26_30 - x_14_26 + x_14_30 <= 1
 c383: x_1_2 + x_1_18 - x_2_27 + x_18_27 <= 2
 c384: x_1_6 + x_1_18 - x_6_29 + x_29_30 + x_14_18 + x_14_30 <= 4
 c385: x_22_25 - x_22_29 + x_25_29 <= 1
 c386: x_1_2 + x_1_18 - x_2_30 + x_14_18 + x_14_30 <= 3
 c387: x_1_7 + x_1_18 - x_7_11 + x_11_18 <= 2
 c388: x_16_18 - x_3_15 + x_3_18 + x_15_16 <= 2
 c389: x_18_20 + x_3_18 - x_3_20 <= 1
 c390: x_1_7 + x_1_18 + x_18_20 - x_7_20 <= 2
 c391: x_1_7 + x_1_18 - x_7_22 + x_12_18 + x_12_22 <= 3
 c392: - x_19_24 + x_19_30 + x_24_30 <= 1
 c393: x_1_7 + x_1_18 - x_7_24 + x_24_30 + x_14_18 + x_14_30 <= 4
 c394: x_18_20 + x_3_18 - x_3_25 + x_20_25 <= 2
 c395: x_18_27 + x_3_18 - x_3_28 + x_27_28 <= 2
 c396: x_3_18 - x_3_29 + x_29_30 + x_14_18 + x_14_30 <= 3
 c397: - x_19_29 + x_19_30 + x_29_30 <= 1
 c398: x_1_7 + x_1_18 - x_7_29 + x_29_30 + x_14_18 + x_14_30 <= 4
 c399: x_3_18 - x_3_30 + x_14_18 + x_14_30 <= 2
 c400: x_1_7 + x_1_18 - x_7_30 + x_14_18 + x_14_30 <= 3
 c401: x_22_31 + x_11_22 - x_11_31 <= 1
Bounds
 0 <= x_0_1 <= 1
 0 <= x_0_2 <= 1
 0 <= x_0_3 <= 1
 0 <= x_0_4 <= 1
 0 <= x_0_5 <= 1
 0 <= x_0_6 <= 1
 0 <= x_0_8 <= 1
 0 <= x_0_9 <= 1
 0 <= x_0_10 <= 1
 0 <= x_0_13 <= 1
 0 <= x_0_16 <= 1
 0 <= x_0_17 <= 1
 0 <= x_16_17 <= 1
 0 <= x_16_18 <= 1
 0 <= x_16_19 <= 1
 0 <= x_16_20 <= 1
 0 <= x_0_21 <= 1
 0 <= x_16_21 <= 1
 0 <= x_0_22 <= 1
 0 <= x_0_24 <= 1
 0 <= x_0_25 <= 1
 0 <= x_16_31 <= 1
 0 <= x_1_2 <= 1
 0 <= x_1_3 <= 1
 0 <= x_1_4 <= 1
 0 <= x_1_5 <= 1
 0 <= x_1_6 <= 1
 0 <= x_1_7 <= 1
 0 <= x_1_8 <= 1
 0 <= x_1_9 <= 1
 0 <= x_1_10 <= 1
 0 <= x_1_12 <= 1
 0 <= x_1_14 <= 1
 0 <= x_1_17 <= 1
 0 <= x_1_18 <= 1
 0 <= x_17_18 <= 1
 0 <= x_17_19 <= 1
 0 <= x_17_20 <= 1
 0 <= x_1_22 <= 1
 0 <= x_1_23 <= 1
 0 <= x_17_26 <= 1
 0 <= x_17_28 <= 1
 0 <= x_1_31 <= 1
 0 <= x_2_3 <= 1
 0 <= x_2_4 <= 1
 0 <= x_2_6 <= 1
 0 <= x_2_7 <= 1
 0 <= x_2_8 <= 1
 0 <= x_2_9 <= 1
 0 <= x_2_10 <= 1
 0 <= x_2_14 <= 1
 0 <= x_2_16 <= 1
 0 <= x_2_19 <= 1
 0 <= x_18_19 <= 1
 0 <= x_18_20 <= 1
 0 <= x_2_21 <= 1
 0 <= x_18_21 <= 1
 0 <= x_2_22 <= 1
 0 <= x_18_25 <= 1
 0 <= x_18_26 <= 1
 0 <= x_2_27 <= 1
 0 <= x_18_27 <= 1
 0 <= x_2_30 <= 1
 0 <= x_3_4 <= 1
 0 <= x_3_5 <= 1
 0 <= x_3_6 <= 1
 0 <= x_3_7 <= 1
 0 <= x_3_8 <= 1
 0 <= x_3_9 <= 1
 0 <= x_3_10 <= 1
 0 <= x_3_15 <= 1
 0 <= x_3_18 <= 1
 0 <= x_3_20 <= 1
 0 <= x_19_20 <= 1
 0 <= x_19_21 <= 1
 0 <= x_19_22 <= 1
 0 <= x_19_24 <= 1
 0 <= x_3_25 <= 1
 0 <= x_3_28 <= 1
 0 <= x_3_29 <= 1
 0 <= x_19_29 <= 1
 0 <= x_3_30 <= 1
 0 <= x_19_30 <= 1
 0 <= x_4_5 <= 1
 0 <= x_4_6 <= 1
 0 <= x_4_7 <= 1
 0 <= x_4_8 <= 1
 0 <= x_4_9 <= 1
 0 <= x_4_10 <= 1
 0 <= x_4_18 <= 1
 0 <= x_4_20 <= 1
 0 <= x_20_21 <= 1
 0 <= x_20_22 <= 1
 0 <= x_20_23 <= 1
 0 <= x_20_25 <= 1
 0 <= x_4_26 <= 1
 0 <= x_4_27 <= 1
 0 <= x_4_29 <= 1
 0 <= x_5_6 <= 1
 0 <= x_5_7 <= 1
 0 <= x_5_8 <= 1
 0 <= x_5_9 <= 1
 0 <= x_5_11 <= 1
 0 <= x_5_12 <= 1
 0 <= x_5_14 <= 1
 0 <= x_5_19 <= 1
 0 <= x_5_21 <= 1
 0 <= x_21_22 <= 1
 0 <= x_21_23 <= 1
 0 <= x_5_28 <= 1
 0 <= x_21_28 <= 1
 0 <= x_5_31 <= 1
 0 <= x_21_31 <= 1
 0 <= x_6_7 <= 1
 0 <= x_6_8 <= 1
 0 <= x_6_9 <= 1
 0 <= x_6_10 <= 1
 0 <= x_6_12 <= 1
 0 <= x_22_23 <= 1
 0 <= x_22_24 <= 1
 0 <= x_6_25 <= 1
 0 <= x_22_25 <= 1
 0 <= x_22_26 <= 1
 0 <= x_22_27 <= 1
 0 <= x_22_28 <= 1
 0 <= x_6_29 <= 1
 0 <= x_22_29 <= 1
 0 <= x_22_30 <= 1
 0 <= x_22_31 <= 1
 0 <= x_7_8 <= 1
 0 <= x_7_9 <= 1
 0 <= x_7_10 <= 1
 0 <= x_7_11 <= 1
 0 <= x_7_20 <= 1
 0 <= x_7_22 <= 1
 0 <= x_7_24 <= 1
 0 <= x_23_24 <= 1
 0 <= x_23_25 <= 1
 0 <= x_23_26 <= 1
 0 <= x_23_27 <= 1
 0 <= x_7_29 <= 1
 0 <= x_23_29 <= 1
 0 <= x_7_30 <= 1
 0 <= x_23_30 <= 1
 0 <= x_8_9 <= 1
 0 <= x_8_10 <= 1
 0 <= x_8_15 <= 1
 0 <= x_8_16 <= 1
 0 <= x_8_17 <= 1
 0 <= x_8_23 <= 1
 0 <= x_8_24 <= 1
 0 <= x_8_25 <= 1
 0 <= x_24_25 <= 1
 0 <= x_24_26 <= 1
 0 <= x_24_27 <= 1
 0 <= x_24_28 <= 1
 0 <= x_24_29 <= 1
 0 <= x_24_30 <= 1
 0 <= x_24_31 <= 1
 0 <= x_9_10 <= 1
 0 <= x_9_18 <= 1
 0 <= x_9_24 <= 1
 0 <= x_9_25 <= 1
 0 <= x_9_26 <= 1
 0 <= x_25_26 <= 1
 0 <= x_25_27 <= 1
 0 <= x_25_28 <= 1
 0 <= x_9_29 <= 1
 0 <= x_25_29 <= 1
 0 <= x_9_31 <= 1
 0 <= x_25_31 <= 1
 0 <= x_10_12 <= 1
 0 <= x_10_13 <= 1
 0 <= x_10_17 <= 1
 0 <= x_10_18 <= 1
 0 <= x_10_21 <= 1
 0 <= x_10_24 <= 1
 0 <= x_26_27 <= 1
 0 <= x_26_28 <= 1
 0 <= x_26_29 <= 1
 0 <= x_26_30 <= 1
 0 <= x_26_31 <= 1
 0 <= x_11_12 <= 1
 0 <= x_11_13 <= 1
 0 <= x_11_14 <= 1
 0 <= x_11_15 <= 1
 0 <= x_11_17 <= 1
 0 <= x_11_18 <= 1
 0 <= x_11_19 <= 1
 0 <= x_11_20 <= 1
 0 <= x_11_21 <= 1
 0 <= x_11_22 <= 1
 0 <= x_11_23 <= 1
 0 <= x_11_27 <= 1
 0 <= x_11_28 <= 1
 0 <= x_27_28 <= 1
 0 <= x_27_29 <= 1
 0 <= x_27_30 <= 1
 0 <= x_11_31 <= 1
 0 <= x_12_13 <= 1
 0 <= x_12_14 <= 1
 0 <= x_12_15 <= 1
 0 <= x_12_16 <= 1
 0 <= x_12_17 <= 1
 0 <= x_12_18 <= 1
 0 <= x_12_19 <= 1
 0 <= x_12_20 <= 1
 0 <= x_12_21 <= 1
 0 <= x_12_22 <= 1
 0 <= x_12_25 <= 1
 0 <= x_12_26 <= 1
 0 <= x_12_29 <= 1
 0 <= x_28_29 <= 1
 0 <= x_28_30 <= 1
 0 <= x_12_31 <= 1
 0 <= x_28_31 <= 1
 0 <= x_13_14 <= 1
 0 <= x_13_15 <= 1
 0 <= x_13_17 <= 1
 0 <= x_13_18 <= 1
 0 <= x_13_19 <= 1
 0 <= x_13_21 <= 1
 0 <= x_13_23 <= 1
 0 <= x_13_27 <= 1
 0 <= x_13_29 <= 1
 0 <= x_29_30 <= 1
 0 <= x_29_31 <= 1
 0 <= x_14_15 <= 1
 0 <= x_14_16 <= 1
 0 <= x_14_17 <= 1
 0 <= x_14_18 <= 1
 0 <= x_14_19 <= 1
 0 <= x_14_21 <= 1
 0 <= x_14_25 <= 1
 0 <= x_14_26 <= 1
 0 <= x_14_29 <= 1
 0 <= x_14_30 <= 1
 0 <= x_30_31 <= 1
 0 <= x_15_16 <= 1
 0 <= x_15_17 <= 1
 0 <= x_15_19 <= 1
 0 <= x_15_20 <= 1
 0 <= x_15_21 <= 1
 0 <= x_15_30 <= 1
Generals
 x_0_1  x_0_2  x_0_3  x_0_4  x_0_5  x_0_6  x_0_8  x_0_9  x_0_10  x_0_13 
 x_0_16  x_0_17  x_16_17  x_16_18  x_16_19  x_16_20  x_0_21  x_16_21  x_0_22 
 x_0_24  x_0_25  x_16_31  x_1_2  x_1_3  x_1_4  x_1_5  x_1_6  x_1_7  x_1_8 
 x_1_9  x_1_10  x_1_12  x_1_14  x_1_17  x_1_18  x_17_18  x_17_19  x_17_20 
 x_1_22  x_1_23  x_17_26  x_17_28  x_1_31  x_2_3  x_2_4  x_2_6  x_2_7  x_2_8 
 x_2_9  x_2_10  x_2_14  x_2_16  x_2_19  x_18_19  x_18_20  x_2_21  x_18_21 
 x_2_22  x_18_25  x_18_26  x_2_27  x_18_27  x_2_30  x_3_4  x_3_5  x_3_6  x_3_7 
 x_3_8  x_3_9  x_3_10  x_3_15  x_3_18  x_3_20  x_19_20  x_19_21  x_19_22 
 x_19_24  x_3_25  x_3_28  x_3_29  x_19_29  x_3_30  x_19_30  x_4_5  x_4_6 
 x_4_7  x_4_8  x_4_9  x_4_10  x_4_18  x_4_20  x_20_21  x_20_22  x_20_23 
 x_20_25  x_4_26  x_4_27  x_4_29  x_5_6  x_5_7  x_5_8  x_5_9  x_5_11  x_5_12 
 x_5_14  x_5_19  x_5_21  x_21_22  x_21_23  x_5_28  x_21_28  x_5_31  x_21_31 
 x_6_7  x_6_8  x_6_9  x_6_10  x_6_12  x_22_23  x_22_24  x_6_25  x_22_25 
 x_22_26  x_22_27  x_22_28  x_6_29  x_22_29  x_22_30  x_22_31  x_7_8  x_7_9 
 x_7_10  x_7_11  x_7_20  x_7_22  x_7_24  x_23_24  x_23_25  x_23_26  x_23_27 
 x_7_29  x_23_29  x_7_30  x_23_30  x_8_9  x_8_10  x_8_15  x_8_16  x_8_17 
 x_8_23  x_8_24  x_8_25  x_24_25  x_24_26  x_24_27  x_24_28  x_24_29  x_24_30 
 x_24_31  x_9_10  x_9_18  x_9_24  x_9_25  x_9_26  x_25_26  x_25_27  x_25_28 
 x_9_29  x_25_29  x_9_31  x_25_31  x_10_12  x_10_13  x_10_17  x_10_18  x_10_21 
 x_10_24  x_26_27  x_26_28  x_26_29  x_26_30  x_26_31  x_11_12  x_11_13 
 x_11_14  x_11_15  x_11_17  x_11_18  x_11_19  x_11_20  x_11_21  x_11_22 
 x_11_23  x_11_27  x_11_28  x_27_28  x_27_29  x_27_30  x_11_31  x_12_13 
 x_12_14  x_12_15  x_12_16  x_12_17  x_12_18  x_12_19  x_12_20  x_12_21 
 x_12_22  x_12_25  x_12_26  x_12_29  x_28_29  x_28_30  x_12_31  x_28_31 
 x_13_14  x_13_15  x_13_17  x_13_18  x_13_19  x_13_21  x_13_23  x_13_27 
 x_13_29  x_29_30  x_29_31  x_14_15  x_14_16  x_14_17  x_14_18  x_14_19 
 x_14_21  x_14_25  x_14_26  x_14_29  x_14_30  x_30_31  x_15_16  x_15_17 
 x_15_19  x_15_20  x_15_21  x_15_30 
End
